nNurses = 51;
nHours = 30;
minHours = 8;
maxHours = 15;
maxConsec = 12;
maxPresence = 8;
demand = [5, 5, 9, 10, 9, 10, 8, 5, 8, 5, 7, 5, 8, 7, 7, 8, 6, 11, 7, 11, 14, 15, 16, 18, 23, 22, 19, 14, 13, 12];
